22
2 38 45 
2 31 8 
3 53 37 12 
2 49 29 
3 59 7 18 
3 11 41 5 
3 42 44 56 
3 40 23 17 
3 51 19 32 
2 55 36 
3 57 10 9 
3 50 2 4 
3 47 20 26 
3 28 6 27 
3 15 14 24 
3 60 22 30 
3 39 25 52 
3 34 1 16 
3 13 43 48 
2 46 21 
2 58 3 
3 35 54 33 
